NAME          DCAP_2_4_3_300_SS72
ROWS
 N  OBJ
 L  CON1
 L  CON2
 L  CON3
 L  CON4
 L  CON5
 L  CON6
 L  CON7
 L  CON8
 L  CON9
 L  CON10
 L  CON11
 L  CON12
 E  CON13
 E  CON14
 E  CON15
 E  CON16
 E  CON17
 E  CON18
 E  CON19
 E  CON20
 E  CON21
 E  CON22
 E  CON23
 E  CON24
COLUMNS
    x[1,1]    OBJ       6.180167      CON1      1.000000    
    x[1,1]    CON7      -1.000000     CON8      -1.000000   
    x[1,1]    CON9      -1.000000   
    x[1,2]    OBJ       6.563535      CON2      1.000000    
    x[1,2]    CON8      -1.000000     CON9      -1.000000   
    x[1,3]    OBJ       7.443064      CON3      1.000000    
    x[1,3]    CON9      -1.000000   
    x[2,1]    OBJ       6.732585      CON4      1.000000    
    x[2,1]    CON10     -1.000000     CON11     -1.000000   
    x[2,1]    CON12     -1.000000   
    x[2,2]    OBJ       5.039546      CON5      1.000000    
    x[2,2]    CON11     -1.000000     CON12     -1.000000   
    x[2,3]    OBJ       6.054841      CON6      1.000000    
    x[2,3]    CON12     -1.000000   
    MARKER    'MARKER'                'INTORG'
    u[1,1]    OBJ       48.076654     CON1      -1.000000   
    u[1,2]    OBJ       20.066487     CON2      -1.000000   
    u[1,3]    OBJ       32.230043     CON3      -1.000000   
    u[2,1]    OBJ       49.996186     CON4      -1.000000   
    u[2,2]    OBJ       49.466655     CON5      -1.000000   
    u[2,3]    OBJ       27.484319     CON6      -1.000000   
    y[1,1,1]  OBJ       9.567933      CON7      0.879416    
    y[1,1,1]  CON13     1.000000    
    y[1,1,2]  OBJ       9.505881      CON8      0.997182    
    y[1,1,2]  CON14     1.000000    
    y[1,1,3]  OBJ       5.604426      CON9      1.421704    
    y[1,1,3]  CON15     1.000000    
    y[1,2,1]  OBJ       9.428784      CON7      0.567676    
    y[1,2,1]  CON16     1.000000    
    y[1,2,2]  OBJ       7.944496      CON8      1.317977    
    y[1,2,2]  CON17     1.000000    
    y[1,2,3]  OBJ       8.857272      CON9      1.301814    
    y[1,2,3]  CON18     1.000000    
    y[1,3,1]  OBJ       7.996681      CON7      1.177826    
    y[1,3,1]  CON19     1.000000    
    y[1,3,2]  OBJ       6.510933      CON8      0.817675    
    y[1,3,2]  CON20     1.000000    
    y[1,3,3]  OBJ       5.751220      CON9      1.236420    
    y[1,3,3]  CON21     1.000000    
    y[1,4,1]  OBJ       5.338444      CON7      0.551318    
    y[1,4,1]  CON22     1.000000    
    y[1,4,2]  OBJ       8.013431      CON8      0.529697    
    y[1,4,2]  CON23     1.000000    
    y[1,4,3]  OBJ       5.628930      CON9      0.646572    
    y[1,4,3]  CON24     1.000000    
    y[2,1,1]  OBJ       9.656533      CON10     0.879416    
    y[2,1,1]  CON13     1.000000    
    y[2,1,2]  OBJ       9.597350      CON11     0.997182    
    y[2,1,2]  CON14     1.000000    
    y[2,1,3]  OBJ       8.179112      CON12     1.421704    
    y[2,1,3]  CON15     1.000000    
    y[2,2,1]  OBJ       8.642653      CON10     0.567676    
    y[2,2,1]  CON16     1.000000    
    y[2,2,2]  OBJ       5.493030      CON11     1.317977    
    y[2,2,2]  CON17     1.000000    
    y[2,2,3]  OBJ       5.107326      CON12     1.301814    
    y[2,2,3]  CON18     1.000000    
    y[2,3,1]  OBJ       5.105915      CON10     1.177826    
    y[2,3,1]  CON19     1.000000    
    y[2,3,2]  OBJ       5.854386      CON11     0.817675    
    y[2,3,2]  CON20     1.000000    
    y[2,3,3]  OBJ       8.015226      CON12     1.236420    
    y[2,3,3]  CON21     1.000000    
    y[2,4,1]  OBJ       5.858825      CON10     0.551318    
    y[2,4,1]  CON22     1.000000    
    y[2,4,2]  OBJ       7.964058      CON11     0.529697    
    y[2,4,2]  CON23     1.000000    
    y[2,4,3]  OBJ       7.476546      CON12     0.646572    
    y[2,4,3]  CON24     1.000000    
    z[1,1]    OBJ       507.375272    CON13     1.000000    
    z[1,2]    OBJ       737.706042    CON14     1.000000    
    z[1,3]    OBJ       829.357404    CON15     1.000000    
    z[2,1]    OBJ       649.539264    CON16     1.000000    
    z[2,2]    OBJ       612.268915    CON17     1.000000    
    z[2,3]    OBJ       633.437161    CON18     1.000000    
    z[3,1]    OBJ       666.704010    CON19     1.000000    
    z[3,2]    OBJ       974.645728    CON20     1.000000    
    z[3,3]    OBJ       693.187783    CON21     1.000000    
    z[4,1]    OBJ       546.995184    CON22     1.000000    
    z[4,2]    OBJ       725.749221    CON23     1.000000    
    z[4,3]    OBJ       620.309250    CON24     1.000000    
    MARKER    'MARKER'                 'INTEND'
RHS
    RHS       CON1      -0.000000     CON2      -0.000000   
    RHS       CON3      -0.000000     CON4      -0.000000   
    RHS       CON5      -0.000000     CON6      -0.000000   
    RHS       CON7      -0.000000     CON8      -0.000000   
    RHS       CON9      -0.000000     CON10     -0.000000   
    RHS       CON11     -0.000000     CON12     -0.000000   
    RHS       CON13     1.000000      CON14     1.000000    
    RHS       CON15     1.000000      CON16     1.000000    
    RHS       CON17     1.000000      CON18     1.000000    
    RHS       CON19     1.000000      CON20     1.000000    
    RHS       CON21     1.000000      CON22     1.000000    
    RHS       CON23     1.000000      CON24     1.000000    
BOUNDS
 BV BOUND     u[1,1]  
 BV BOUND     u[1,2]  
 BV BOUND     u[1,3]  
 BV BOUND     u[2,1]  
 BV BOUND     u[2,2]  
 BV BOUND     u[2,3]  
 BV BOUND     y[1,1,1]
 BV BOUND     y[1,1,2]
 BV BOUND     y[1,1,3]
 BV BOUND     y[1,2,1]
 BV BOUND     y[1,2,2]
 BV BOUND     y[1,2,3]
 BV BOUND     y[1,3,1]
 BV BOUND     y[1,3,2]
 BV BOUND     y[1,3,3]
 BV BOUND     y[1,4,1]
 BV BOUND     y[1,4,2]
 BV BOUND     y[1,4,3]
 BV BOUND     y[2,1,1]
 BV BOUND     y[2,1,2]
 BV BOUND     y[2,1,3]
 BV BOUND     y[2,2,1]
 BV BOUND     y[2,2,2]
 BV BOUND     y[2,2,3]
 BV BOUND     y[2,3,1]
 BV BOUND     y[2,3,2]
 BV BOUND     y[2,3,3]
 BV BOUND     y[2,4,1]
 BV BOUND     y[2,4,2]
 BV BOUND     y[2,4,3]
 BV BOUND     z[1,1]  
 BV BOUND     z[1,2]  
 BV BOUND     z[1,3]  
 BV BOUND     z[2,1]  
 BV BOUND     z[2,2]  
 BV BOUND     z[2,3]  
 BV BOUND     z[3,1]  
 BV BOUND     z[3,2]  
 BV BOUND     z[3,3]  
 BV BOUND     z[4,1]  
 BV BOUND     z[4,2]  
 BV BOUND     z[4,3]  
ENDATA
